0000000000000000
0000000000000000
0000111111100000
0001111111110000
0011111111110000
0000000000111000
0000000000011000
0000100000011000
0001100000011000
0001100000011000
0001100000011000
0001100000011000
0001000000010000
0000000000000000
0000000000000000
0000000000000000
